qbf_easy_train/easy_4242_SAT.qdimacs
p cnf 22 54
a 8 21 0
e 1 2 3 4 5 6 7 9 10 11 12 13 14 15 16 17 18 19 20 22 0
1 2 -3 0
-1 -2 -3 0
1 -2 3 0
-1 2 3 0
5 -4 0
5 -4 0
4 -5 0
-8 -6 0
-8 -7 0
6 7 8 0
10 -9 0
10 -2 0
9 2 -10 0
8 10 -11 0
-8 -10 -11 0
8 -10 11 0
-8 10 11 0
5 -11 -12 0
-5 11 -12 0
5 11 12 0
-5 -11 12 0
-13 -3 0
-13 12 0
3 -12 13 0
-15 2 0
-15 -9 0
-2 9 15 0
16 -14 0
16 15 0
14 -15 -16 0
6 -16 -17 0
-6 16 -17 0
6 16 17 0
-6 -16 17 0
-13 17 -18 0
13 -17 -18 0
-13 -17 18 0
13 17 18 0
20 7 0
20 -19 0
-7 19 -20 0
15 20 -21 0
-15 -20 -21 0
15 -20 21 0
-15 20 21 0
22 -18 0
22 -21 0
18 21 -22 0
-5 16 21 -12 19 0
4 22 -13 0
-11 -4 1 -13 -8 0
14 1 13 3 0
16 3 -1 -2 0
22 0
