sat_easy_train/easy_4242_SAT.dimacs
p cnf 125 409
4 2 0
4 3 0
-2 -3 -4 0
-4 -5 -6 0
4 5 -6 0
-4 5 6 0
4 -5 6 0
-7 6 0
-7 -6 0
9 -8 0
9 5 0
8 -5 -9 0
-7 9 -10 0
7 -9 -10 0
-7 -9 10 0
7 9 10 0
-13 -11 0
-13 -12 0
11 12 13 0
14 10 0
14 -13 0
-10 13 -14 0
-15 -1 0
-15 -14 0
1 14 15 0
-16 4 0
-16 7 0
-4 -7 16 0
-18 -17 0
-18 11 0
17 -11 18 0
-19 -16 0
-19 -18 0
16 18 19 0
20 -19 0
20 2 0
19 -2 -20 0
-22 21 0
-22 -1 0
-21 1 22 0
22 23 -24 0
-22 -23 -24 0
22 -23 24 0
-22 23 24 0
-25 -20 0
-25 -24 0
20 24 25 0
-15 -25 -26 0
15 25 -26 0
-15 25 26 0
15 -25 26 0
28 13 0
28 -27 0
-13 27 -28 0
5 -8 -29 0
-5 8 -29 0
5 8 29 0
-5 -8 29 0
-28 29 -30 0
28 -29 -30 0
-28 -29 30 0
28 29 30 0
-30 4 -31 0
30 -4 -31 0
-30 -4 31 0
30 4 31 0
-32 -1 0
-32 -2 0
1 2 32 0
32 33 -34 0
-32 -33 -34 0
32 -33 34 0
-32 33 34 0
35 -23 0
35 -34 0
23 34 -35 0
36 35 0
36 27 0
-35 -27 -36 0
-37 4 0
-37 29 0
-4 -29 37 0
-38 37 0
-38 23 0
-37 -23 38 0
32 -9 -39 0
-32 9 -39 0
32 9 39 0
-32 -9 39 0
40 38 0
40 39 0
-38 -39 -40 0
41 -36 0
41 40 0
36 -40 -41 0
-42 31 0
-42 -41 0
-31 41 42 0
43 26 0
43 42 0
-26 -42 -43 0
-34 17 -44 0
34 -17 -44 0
-34 -17 44 0
34 17 44 0
45 -32 0
45 -44 0
32 44 -45 0
-43 45 -46 0
43 -45 -46 0
-43 -45 46 0
43 45 46 0
47 -35 0
47 3 0
35 -3 -47 0
8 12 -48 0
-8 -12 -48 0
8 -12 48 0
-8 12 48 0
-48 9 -49 0
48 -9 -49 0
-48 -9 49 0
48 9 49 0
49 -11 -50 0
-49 11 -50 0
49 11 50 0
-49 -11 50 0
16 37 -51 0
-16 -37 -51 0
16 -37 51 0
-16 37 51 0
52 51 0
52 -1 0
-51 1 -52 0
54 52 0
54 -53 0
-52 53 -54 0
-55 -50 0
-55 54 0
50 -54 55 0
56 -17 0
56 5 0
17 -5 -56 0
-57 56 0
-57 11 0
-56 -11 57 0
58 -22 0
58 57 0
22 -57 -58 0
58 17 -59 0
-58 -17 -59 0
58 -17 59 0
-58 17 59 0
-60 -57 0
-60 59 0
57 -59 60 0
61 -1 0
61 7 0
1 -7 -61 0
-60 61 -62 0
60 -61 -62 0
-60 -61 62 0
60 61 62 0
63 55 0
63 -62 0
-55 62 -63 0
65 56 0
65 -23 0
-56 23 -65 0
-64 -65 -66 0
64 65 -66 0
-64 65 66 0
64 -65 66 0
-67 66 0
-67 -66 0
-68 -58 0
-68 17 0
58 -17 68 0
-69 -68 0
-69 22 0
68 -22 69 0
-70 -67 0
-70 -69 0
67 69 70 0
-1 -7 -71 0
1 7 -71 0
-1 7 71 0
1 -7 71 0
-72 71 0
-72 56 0
-71 -56 72 0
73 9 0
73 72 0
-9 -72 -73 0
74 -2 0
74 17 0
2 -17 -74 0
-75 -64 0
-75 8 0
64 -8 75 0
-76 75 0
-76 51 0
-75 -51 76 0
-77 74 0
-77 -76 0
-74 76 77 0
-78 73 0
-78 -77 0
-73 77 78 0
79 -70 0
79 -78 0
70 78 -79 0
80 64 0
80 -53 0
-64 53 -80 0
81 -28 0
81 23 0
28 -23 -81 0
-22 -16 -82 0
22 16 -82 0
-22 16 82 0
22 -16 82 0
83 81 0
83 -82 0
-81 82 -83 0
84 -80 0
84 83 0
80 -83 -84 0
-85 -12 0
-85 3 0
12 -3 85 0
86 84 0
86 85 0
-84 -85 -86 0
-87 6 0
-87 27 0
-6 -27 87 0
-88 -22 0
-88 -87 0
22 87 88 0
89 86 0
89 88 0
-86 -88 -89 0
38 -11 -90 0
-38 11 -90 0
38 11 90 0
-38 -11 90 0
-91 22 0
-91 90 0
-22 -90 91 0
-92 27 0
-92 6 0
-27 -6 92 0
93 91 0
93 92 0
-91 -92 -93 0
94 -5 0
94 19 0
5 -19 -94 0
-95 -35 0
-95 -65 0
35 65 95 0
96 94 0
96 -95 0
-94 95 -96 0
97 -93 0
97 -96 0
93 96 -97 0
-98 89 0
-98 97 0
-89 -97 98 0
99 -79 0
99 -98 0
79 98 -99 0
-10 -100 -101 0
10 100 -101 0
-10 100 101 0
10 -100 101 0
30 64 -102 0
-30 -64 -102 0
30 -64 102 0
-30 64 102 0
-103 -101 0
-103 102 0
101 -102 103 0
104 -17 0
104 71 0
17 -71 -104 0
-105 103 0
-105 104 0
-103 -104 105 0
106 -99 0
106 -105 0
99 105 -106 0
-108 -29 0
-108 9 0
29 -9 108 0
-109 108 0
-109 21 0
-108 -21 109 0
109 -38 -110 0
-109 38 -110 0
109 38 110 0
-109 -38 110 0
52 -110 -111 0
-52 110 -111 0
52 110 111 0
-52 -110 111 0
112 107 0
112 -111 0
-107 111 -112 0
113 6 0
113 -11 0
-6 11 -113 0
-112 -113 -114 0
112 113 -114 0
-112 113 114 0
112 -113 114 0
115 -106 0
115 114 0
106 -114 -115 0
116 63 0
116 -115 0
-63 115 -116 0
47 -116 -117 0
-47 116 -117 0
47 116 117 0
-47 -116 117 0
118 -34 0
118 -39 0
34 39 -118 0
-75 11 -119 0
75 -11 -119 0
-75 -11 119 0
75 11 119 0
120 -34 0
120 8 0
34 -8 -120 0
-21 -120 -121 0
21 120 -121 0
-21 120 121 0
21 -120 121 0
-122 119 0
-122 121 0
-119 -121 122 0
118 -122 -123 0
-118 122 -123 0
118 122 123 0
-118 -122 123 0
124 117 0
124 123 0
-117 -123 -124 0
125 -46 0
125 124 0
46 -124 -125 0
119 -19 66 5 0
-123 69 98 0
-112 -23 -42 75 11 0
-116 -40 -94 -54 0
-37 48 -97 95 -65 0
98 -110 101 0
-76 -25 -18 55 -16 -58 0
-45 -100 117 113 36 -81 0
80 9 0
-64 -88 44 0
-37 -96 80 -110 0
95 -18 -30 -69 0
-72 -120 -99 115 0
51 49 33 -124 21 0
96 -122 0
-58 113 -40 0
-21 -4 84 -18 -85 95 0
12 27 18 0
-61 42 -113 4 59 -51 0
86 42 -38 -93 0
-57 47 22 79 -80 -76 0
16 54 -86 92 -123 0
-44 -28 -116 0
-119 50 -103 7 20 0
-87 -105 0
12 124 -29 108 0
72 8 0
-63 29 0
63 18 0
35 71 21 0
-98 95 -85 77 -56 0
54 16 -12 -48 117 -68 0
109 -46 87 -26 61 0
18 -82 -115 -41 23 121 0
-107 -56 12 0
100 68 54 87 32 0
9 -63 -7 124 24 0
96 111 88 -63 12 0
18 7 54 107 9 -92 0
32 -66 9 100 0
-93 75 32 -115 0
-22 77 -14 0
42 41 90 84 71 0
8 63 -59 0
-71 -65 107 0
-25 -61 0
77 26 -109 -119 -63 39 0
-81 -47 27 -74 -123 0
-35 90 -22 0
107 36 -60 -8 0
17 -51 11 -99 16 0
12 -33 -82 0
-55 31 18 -98 -44 0
125 0
